qbf_easy_train/easy_1563_UNSAT.qdimacs
p cnf 27 73
a 25 26 14 0
e 1 2 3 4 5 6 7 8 9 10 11 12 13 15 16 17 18 19 20 21 22 23 24 27 0
-2 -3 0
2 -3 0
-4 -1 0
-4 -3 0
1 3 4 0
6 -2 0
6 -5 0
2 5 -6 0
7 4 0
7 -6 0
-4 6 -7 0
9 3 0
9 8 0
-3 -8 -9 0
-9 -10 -11 0
9 10 -11 0
-9 10 11 0
9 -10 11 0
13 -12 0
13 -2 0
12 2 -13 0
-14 12 0
-14 -13 0
-12 13 14 0
14 -12 -15 0
-14 12 -15 0
14 12 15 0
-14 -12 15 0
-11 15 -16 0
11 -15 -16 0
-11 -15 16 0
11 15 16 0
17 2 0
17 -5 0
-2 5 -17 0
16 -17 -18 0
-16 17 -18 0
16 17 18 0
-16 -17 18 0
19 -7 0
19 -18 0
7 18 -19 0
-20 13 0
-20 3 0
-13 -3 20 0
21 2 -22 0
-21 -2 -22 0
21 -2 22 0
-21 2 22 0
20 22 -23 0
-20 -22 -23 0
20 -22 23 0
-20 22 23 0
14 24 -25 0
-14 -24 -25 0
14 -24 25 0
-14 24 25 0
-23 -25 -26 0
23 25 -26 0
-23 25 26 0
23 -25 26 0
19 26 -27 0
-19 -26 -27 0
19 -26 27 0
-19 26 27 0
-14 -22 -26 24 13 18 0
3 13 -19 0
-11 25 20 0
-13 6 -10 2 0
-3 10 1 12 0
6 -2 -10 27 0
-3 -6 -7 1 -4 0
27 0
