sat_easy_train/easy_1563_UNSAT.dimacs
p cnf 144 490
-4 -2 0
-4 -3 0
2 3 4 0
5 1 0
5 4 0
-1 -4 -5 0
6 4 -7 0
-6 -4 -7 0
6 -4 7 0
-6 4 7 0
-8 5 0
-8 -7 0
-5 7 8 0
9 -10 -11 0
-9 10 -11 0
9 10 11 0
-9 -10 11 0
15 -10 0
15 14 0
10 -14 -15 0
16 -13 0
16 -15 0
13 15 -16 0
-12 -16 -17 0
12 16 -17 0
-12 16 17 0
12 -16 17 0
-18 11 0
-18 -17 0
-11 17 18 0
15 -14 -20 0
-15 14 -20 0
15 14 20 0
-15 -14 20 0
21 -19 0
21 20 0
19 -20 -21 0
-4 22 -23 0
4 -22 -23 0
-4 -22 23 0
4 22 23 0
-21 -23 -24 0
21 23 -24 0
-21 23 24 0
21 -23 24 0
25 -15 0
25 10 0
15 -10 -25 0
-27 22 0
-27 26 0
-22 -26 27 0
-28 15 0
-28 27 0
-15 -27 28 0
29 -25 0
29 28 0
25 -28 -29 0
-30 24 0
-30 29 0
-24 -29 30 0
-31 9 0
-31 -11 0
-9 11 31 0
-33 -32 0
-33 -26 0
32 26 33 0
34 -33 0
34 11 0
33 -11 -34 0
-35 -31 0
-35 -34 0
31 34 35 0
36 30 0
36 35 0
-30 -35 -36 0
37 18 0
37 -36 0
-18 36 -37 0
-39 14 0
-39 38 0
-14 -38 39 0
40 39 0
40 12 0
-39 -12 -40 0
37 40 -41 0
-37 -40 -41 0
37 -40 41 0
-37 40 41 0
42 19 0
42 22 0
-19 -22 -42 0
12 -42 -43 0
-12 42 -43 0
12 42 43 0
-12 -42 43 0
-44 -19 0
-44 39 0
19 -39 44 0
-45 43 0
-45 -44 0
-43 44 45 0
46 -41 0
46 -45 0
41 45 -46 0
8 -46 -47 0
-8 46 -47 0
8 46 47 0
-8 -46 47 0
48 -31 0
48 19 0
31 -19 -48 0
49 -3 0
49 -9 0
3 9 -49 0
50 -49 0
50 -33 0
49 33 -50 0
51 -16 0
51 11 0
16 -11 -51 0
-52 50 0
-52 51 0
-50 -51 52 0
53 10 0
53 38 0
-10 -38 -53 0
-54 -38 0
-54 -53 0
38 53 54 0
-44 -54 -55 0
44 54 -55 0
-44 54 55 0
44 -54 55 0
-52 55 -56 0
52 -55 -56 0
-52 -55 56 0
52 55 56 0
-57 -26 0
-57 32 0
26 -32 57 0
12 57 -58 0
-12 -57 -58 0
12 -57 58 0
-12 57 58 0
56 58 -59 0
-56 -58 -59 0
56 -58 59 0
-56 58 59 0
60 3 0
60 -10 0
-3 10 -60 0
61 26 0
61 -60 0
-26 60 -61 0
62 -59 0
62 -61 0
59 61 -62 0
-63 -48 0
-63 -62 0
48 62 63 0
55 33 -64 0
-55 -33 -64 0
55 -33 64 0
-55 33 64 0
-11 64 -65 0
11 -64 -65 0
-11 -64 65 0
11 64 65 0
66 -63 0
66 65 0
63 -65 -66 0
67 22 0
67 -3 0
-22 3 -67 0
-68 23 0
-68 -67 0
-23 67 68 0
-26 -68 -69 0
26 68 -69 0
-26 68 69 0
26 -68 69 0
31 69 -70 0
-31 -69 -70 0
31 -69 70 0
-31 69 70 0
-71 -14 0
-71 -1 0
14 1 71 0
72 71 0
72 13 0
-71 -13 -72 0
2 -22 -73 0
-2 22 -73 0
2 22 73 0
-2 -22 73 0
74 72 0
74 -73 0
-72 73 -74 0
-75 -70 0
-75 74 0
70 -74 75 0
76 67 0
76 -19 0
-67 19 -76 0
-22 67 -77 0
22 -67 -77 0
-22 -67 77 0
22 67 77 0
78 -77 0
78 -20 0
77 20 -78 0
79 78 0
79 34 0
-78 -34 -79 0
-80 -79 0
-80 77 0
79 -77 80 0
-76 80 -81 0
76 -80 -81 0
-76 -80 81 0
76 80 81 0
67 -21 -82 0
-67 21 -82 0
67 21 82 0
-67 -21 82 0
83 -4 0
83 82 0
4 -82 -83 0
84 -54 0
84 -82 0
54 82 -84 0
2 -44 -85 0
-2 44 -85 0
2 44 85 0
-2 -44 85 0
-84 -85 -86 0
84 85 -86 0
-84 85 86 0
84 -85 86 0
87 -83 0
87 86 0
83 -86 -87 0
81 -87 -88 0
-81 87 -88 0
81 87 88 0
-81 -87 88 0
-89 -75 0
-89 88 0
75 -88 89 0
90 66 0
90 -89 0
-66 89 -90 0
-91 26 0
-91 -3 0
-26 3 91 0
92 -64 0
92 -91 0
64 91 -92 0
77 -93 -94 0
-77 93 -94 0
77 93 94 0
-77 -93 94 0
94 84 -95 0
-94 -84 -95 0
94 -84 95 0
-94 84 95 0
-96 92 0
-96 95 0
-92 -95 96 0
-97 22 -98 0
97 -22 -98 0
-97 -22 98 0
97 22 98 0
96 -98 -99 0
-96 98 -99 0
96 98 99 0
-96 -98 99 0
-100 -90 0
-100 99 0
90 -99 100 0
-15 -38 -101 0
15 38 -101 0
-15 38 101 0
15 -38 101 0
6 -101 -102 0
-6 101 -102 0
6 101 102 0
-6 -101 102 0
-103 -44 0
-103 77 0
44 -77 103 0
104 102 0
104 103 0
-102 -103 -104 0
101 77 -105 0
-101 -77 -105 0
101 -77 105 0
-101 77 105 0
106 -34 0
106 60 0
34 -60 -106 0
107 -106 0
107 -6 0
106 6 -107 0
-105 -107 -108 0
105 107 -108 0
-105 107 108 0
105 -107 108 0
-109 -39 0
-109 23 0
39 -23 109 0
-110 -108 0
-110 109 0
108 -109 110 0
104 110 -111 0
-104 -110 -111 0
104 -110 111 0
-104 110 111 0
112 23 0
112 54 0
-23 -54 -112 0
68 -112 -113 0
-68 112 -113 0
68 112 113 0
-68 -112 113 0
111 -113 -114 0
-111 113 -114 0
111 113 114 0
-111 -113 114 0
-115 -101 0
-115 1 0
101 -1 115 0
116 115 0
116 -77 0
-115 77 -116 0
93 -51 -117 0
-93 51 -117 0
93 51 117 0
-93 -51 117 0
-118 -116 0
-118 117 0
116 -117 118 0
119 44 0
119 33 0
-44 -33 -119 0
120 -42 0
120 -115 0
42 115 -120 0
121 -20 0
121 -120 0
20 120 -121 0
122 119 0
122 -121 0
-119 121 -122 0
-123 -1 0
-123 1 0
-124 15 0
-124 1 0
-15 -1 124 0
-125 -123 0
-125 124 0
123 -124 125 0
122 125 -126 0
-122 -125 -126 0
122 -125 126 0
-122 125 126 0
-127 118 0
-127 126 0
-118 -126 127 0
114 127 -128 0
-114 -127 -128 0
114 -127 128 0
-114 127 128 0
100 -128 -129 0
-100 128 -129 0
100 128 129 0
-100 -128 129 0
-47 -129 -130 0
47 129 -130 0
-47 129 130 0
47 -129 130 0
-131 -112 0
-131 -22 0
112 22 131 0
132 -44 0
132 -9 0
44 9 -132 0
133 39 0
133 -132 0
-39 132 -133 0
120 -133 -134 0
-120 133 -134 0
120 133 134 0
-120 -133 134 0
-135 -131 0
-135 134 0
131 -134 135 0
136 -15 0
136 15 0
-137 -77 0
-137 -136 0
77 136 137 0
3 137 -138 0
-3 -137 -138 0
3 -137 138 0
-3 137 138 0
-139 26 0
-139 -54 0
-26 54 139 0
-140 -138 0
-140 -139 0
138 139 140 0
-141 27 0
-141 -93 0
-27 93 141 0
142 -140 0
142 -141 0
140 141 -142 0
-143 -135 0
-143 -142 0
135 142 143 0
130 143 -144 0
-130 -143 -144 0
130 -143 144 0
-130 143 144 0
-126 -122 -33 -120 -14 44 0
91 -93 0
133 -134 0
40 132 -43 -42 130 -140 0
-112 117 22 0
-55 -26 -112 -74 -29 24 0
84 88 62 104 0
-101 -17 -46 0
106 130 -2 -90 -124 0
-126 -136 0
-81 -11 80 139 32 -97 0
121 -104 86 -47 0
-86 -51 52 53 -113 9 0
66 18 -63 0
-80 109 0
38 -138 0
-99 87 -18 0
-75 121 0
-84 -34 0
-144 41 -130 -51 0
138 139 0
-79 46 -47 0
9 -59 0
115 17 59 7 128 -136 0
-90 -82 0
-27 101 -41 11 -6 0
-124 85 -140 0
-24 -14 -13 68 0
-131 -112 132 117 0
-55 107 38 0
85 -127 0
11 -73 5 18 0
-126 -87 92 0
34 51 0
54 -92 30 -128 -53 -98 0
-142 -21 -133 -84 55 0
90 -31 117 0
15 138 -53 -57 0
-102 34 -118 -26 -68 82 0
-132 139 -86 -101 66 73 0
118 -92 0
96 38 0
-111 103 89 142 0
9 69 103 138 -129 -110 0
39 90 93 -3 -116 0
20 17 -51 -110 -141 85 0
63 102 -65 0
-45 -85 0
94 53 44 -14 0
-125 -88 120 -84 -134 -33 0
1 -121 99 -4 -110 19 0
-27 -36 3 -31 -144 0
-72 113 -73 -141 46 -93 0
-36 -121 -44 -99 0
-2 -21 -51 126 0
52 117 -53 134 0
-36 -97 -132 0
-80 142 -20 -62 -119 -110 0
104 9 0
30 -57 -46 97 92 122 0
25 28 90 -139 -96 0
143 -7 144 0
73 26 -93 116 -98 40 0
-125 103 -82 89 -53 0
144 0
